* (set-option :incremental false)
* (set-info :status sat)
* (set-logic QF_BV)
* (declare-fun a () (_ BitVec 32))
* (check-sat-assuming ( (= ((_ extract 6 2) a) (concat (_ bv0 3) ((_ extract 6 5) a))) ))
* sat
* #variable= 20 #constraint= 16
+1 x11 -1 x43 = 0;
+1 x44 -1 x39 = 0;
+1 x1 +2 x2 +4 x3 +8 x4 +16 x5 -1 x38 -2 x39 -4 x40 -8 x41 -16 x42 = 0;
+1 x12 -1 x5 = 0;
+1 x11 -1 x4 = 0;
+1 x47 -1 x42 = 0;
+1 x46 = 0;
+1 x10 -1 x3 = 0;
+1 x12 -1 x44 = 0;
+1 x9 -1 x2 = 0;
+1 x45 -1 x40 = 0;
+1 x8 -1 x1 = 0;
+1 x43 -1 x38 = 0;
+1 x46 -1 x41 = 0;
+1 x47 = 0;
+1 x45 = 0;
